RT is False
Default write of storage_offers_DA.csv just to have a file (but constraint should be inactive)
Reading model...
...model read.
creating competitive generators file...
...competitive generators recorded.
Loading data...
.. day-ahead data with real-time VRE data read.
Compiling instance...
...instance created.
Creating Offer Mitigation (model will solve as dispatch if TRUE)...
Solving...

Welcome to IBM(R) ILOG(R) CPLEX(R) Interactive Optimizer 12.9.0.0
  with Simplex, Mixed Integer & Barrier Optimizers
5725-A06 5725-A29 5724-Y48 5724-Y49 5724-Y54 5724-Y55 5655-Y21
Copyright IBM Corp. 1988, 2019.  All Rights Reserved.

Type 'help' for a list of available commands.
Type 'help' followed by a command name for more
information on commands.

CPLEX> Logfile 'cplex.log' closed.
Logfile 'C:\Users\Luke\Desktop\test919\logs\tmp_f104ijn.cplex.log' open.
CPLEX> New value for parallel optimization mode: -1
CPLEX> New value for emphasis for MIP optimization: 1
CPLEX> New value for mixed integer optimality gap tolerance: 0.01
CPLEX> New value for integrality tolerance: 1e-12
CPLEX> New value for deterministic time limit in ticks: 75000
CPLEX> Problem 'C:\Users\Luke\Desktop\test919\logs\tmphvr5phws.pyomo.lp' read.
Read time = 0.05 sec. (3.05 ticks)
CPLEX> Problem name         : C:\Users\Luke\Desktop\test919\logs\tmphvr5phws.pyomo.lp
Objective sense      : Minimize
Variables            :   26085  [Nneg: 1,  Box: 21620,  Free: 4464]
Objective nonzeros   :    2496
Linear constraints   :   27563  [Less: 14006,  Greater: 4416,  Equal: 9141]
  Nonzeros           :   90683
  RHS nonzeros       :   12271

Variables            : Min LB: -5000.000        Max UB: 1000000.       
Objective nonzeros   : Min   : 15.73158         Max   : 124.0997       
Linear constraints   :
  Nonzeros           : Min   : 0.8500000        Max   : 3000.000       
  RHS nonzeros       : Min   : 0.1083333        Max   : 5000.000       
CPLEX> CPXPARAM_Parallel                                -1
CPXPARAM_Emphasis_MIP                            1
CPXPARAM_DetTimeLimit                            75000
CPXPARAM_MIP_Tolerances_MIPGap                   0.01
CPXPARAM_MIP_Tolerances_Integrality              9.9999999999999998e-13
Parallel mode: opportunistic, using up to 12 threads for concurrent optimization.
Tried aggregator 1 time.
LP Presolve eliminated 21384 rows and 15495 columns.
Aggregator did 754 substitutions.
Reduced LP has 5425 rows, 9836 columns, and 32578 nonzeros.
Presolve time = 0.05 sec. (30.59 ticks)
Symmetry aggregator did 5659 additional substitutions.
Initializing dual steep norms . . .

Iteration log . . .
Iteration:     1   Dual objective     =             0.000000
Perturbation started.
Iteration:   101   Dual objective     =             0.000000
Iteration:   343   Dual objective     =            53.871256
Iteration:   546   Dual objective     =            64.359931
Iteration:   761   Dual objective     =            64.709943
Iteration:   947   Dual objective     =          2210.808949
Iteration:  1127   Dual objective     =         41628.580034
Iteration:  1404   Dual objective     =         65688.890641
Removing perturbation.

Dual crossover.
  Dual:  Fixed no variables.
  Primal:  Fixed no variables.

Dual simplex solved model.


Dual simplex - Optimal:  Objective =  6.5624131805e+04
Solution time =    0.11 sec.  Iterations = 1410 (0)
Deterministic time = 78.35 ticks  (712.25 ticks/sec)

CPLEX> Solution written to file 'C:\Users\Luke\Desktop\test919\logs\tmpwya_i_77.cplex.sol'.
CPLEX> Exporting results... 
...storage offer mitigation file created
Converting model to MPEC...
...converted
NOTE: initial MIP solve with only storage competitive to get feasible solution
Solving...

Welcome to IBM(R) ILOG(R) CPLEX(R) Interactive Optimizer 12.9.0.0
  with Simplex, Mixed Integer & Barrier Optimizers
5725-A06 5725-A29 5724-Y48 5724-Y49 5724-Y54 5724-Y55 5655-Y21
Copyright IBM Corp. 1988, 2019.  All Rights Reserved.

Type 'help' for a list of available commands.
Type 'help' followed by a command name for more
information on commands.

CPLEX> Logfile 'cplex.log' closed.
Logfile 'C:\Users\Luke\Desktop\test919\logs\tmpp5cdi86n.cplex.log' open.
CPLEX> New value for parallel optimization mode: -1
CPLEX> New value for emphasis for MIP optimization: 1
CPLEX> New value for mixed integer optimality gap tolerance: 0.01
CPLEX> New value for integrality tolerance: 1e-12
CPLEX> New value for deterministic time limit in ticks: 75000
CPLEX> Problem 'C:\Users\Luke\Desktop\test919\logs\tmpycgb8yo2.pyomo.lp' read.
Read time = 0.20 sec. (13.88 ticks)
CPLEX> Problem name         : C:\Users\Luke\Desktop\test919\logs\tmpycgb8yo2.pyomo.lp
Objective sense      : Maximize
Variables            :   53809  [Nneg: 1,  Box: 22004,  Free: 4464,
                                 Binary: 27340]
Objective nonzeros   :    9029
Linear constraints   :  123253  [Less: 41346,  Greater: 59096,  Equal: 22811]
  Nonzeros           :  293217
  RHS nonzeros       :   67491

Variables            : Min LB: -5000.000        Max UB: 1000000.       
Objective nonzeros   : Min   : 0.1083333        Max   : 2500.000       
Linear constraints   :
  Nonzeros           : Min   : 0.1083333        Max   : 1000000.       
  RHS nonzeros       : Min   : 0.1083333        Max   : 1000000.       
CPLEX> CPXPARAM_Parallel                                -1
CPXPARAM_Emphasis_MIP                            1
CPXPARAM_DetTimeLimit                            75000
CPXPARAM_MIP_Tolerances_MIPGap                   0.01
CPXPARAM_MIP_Tolerances_Integrality              9.9999999999999998e-13
Tried aggregator 4 times.
MIP Presolve eliminated 88656 rows and 18959 columns.
MIP Presolve added 3378 rows and 0 columns.
MIP Presolve modified 24841 coefficients.
Aggregator did 12998 substitutions.
Reduced MIP has 24977 rows, 21296 columns, and 71857 nonzeros.
Reduced MIP has 8422 binaries, 0 generals, 0 SOSs, and 0 indicators.
Presolve time = 0.27 sec. (192.52 ticks)
Probing fixed 391 vars, tightened 3973 bounds.
Probing time = 0.05 sec. (18.97 ticks)
Tried aggregator 2 times.
MIP Presolve eliminated 883 rows and 785 columns.
MIP Presolve modified 3037 coefficients.
Aggregator did 30 substitutions.
Reduced MIP has 24064 rows, 20481 columns, and 69211 nonzeros.
Reduced MIP has 8030 binaries, 0 generals, 0 SOSs, and 0 indicators.
Presolve time = 0.11 sec. (89.65 ticks)
Probing fixed 0 vars, tightened 250 bounds.
Probing time = 0.13 sec. (22.81 ticks)
Clique table members: 45213.
MIP emphasis: integer feasibility.
MIP search method: dynamic search.
Parallel mode: opportunistic, using up to 12 threads.
Root relaxation solution time = 0.39 sec. (618.03 ticks)

        Nodes                                         Cuts/
   Node  Left     Objective  IInf  Best Integer    Best Bound    ItCnt     Gap

      0     0      794.8277   116                    794.8277     5218         
*     0+    0                          794.8277      794.8277             0.00%
      0     0        cutoff            794.8277      794.8277     5218    0.00%
Elapsed time = 1.58 sec. (1310.61 ticks, tree = 0.01 MB, solutions = 1)

Root node processing (before b&c):
  Real time             =    1.59 sec. (1312.56 ticks)
Parallel b&c, 12 threads:
  Real time             =    0.00 sec. (0.00 ticks)
  Sync time (average)   =    0.00 sec.
  Wait time (average)   =    0.00 sec.
                          ------------
Total (root+branch&cut) =    1.59 sec. (1312.56 ticks)

Solution pool: 1 solution saved.

MIP - Integer optimal solution:  Objective =  7.9482771182e+02
Solution time =    1.59 sec.  Iterations = 5218  Nodes = 0
Deterministic time = 1312.71 ticks  (823.53 ticks/sec)

CPLEX> Incumbent solution written to file 'C:\Users\Luke\Desktop\test919\logs\tmp7a90t89i.cplex.sol'.
CPLEX> NOTE: no warmstart specified for MIP iteration, default behavior is true
NOTE: resolving with all competitive generators using storage-only solution to warmstart
Solving...

Welcome to IBM(R) ILOG(R) CPLEX(R) Interactive Optimizer 12.9.0.0
  with Simplex, Mixed Integer & Barrier Optimizers
5725-A06 5725-A29 5724-Y48 5724-Y49 5724-Y54 5724-Y55 5655-Y21
Copyright IBM Corp. 1988, 2019.  All Rights Reserved.

Type 'help' for a list of available commands.
Type 'help' followed by a command name for more
information on commands.

CPLEX> Logfile 'cplex.log' closed.
Logfile 'C:\Users\Luke\Desktop\test919\logs\tmpto0ovblj.cplex.log' open.
CPLEX> New value for parallel optimization mode: -1
CPLEX> New value for emphasis for MIP optimization: 1
CPLEX> New value for mixed integer optimality gap tolerance: 0.01
CPLEX> New value for integrality tolerance: 1e-12
CPLEX> New value for deterministic time limit in ticks: 75000
CPLEX> Problem 'C:\Users\Luke\Desktop\test919\logs\tmppt47cwtt.pyomo.lp' read.
Read time = 0.20 sec. (13.91 ticks)
CPLEX> MIP start file 'C:\Users\Luke\Desktop\test919\logs\tmpwdstlxwq.cplex.mst' read.
CPLEX> Problem name         : C:\Users\Luke\Desktop\test919\logs\tmppt47cwtt.pyomo.lp
Objective sense      : Maximize
Variables            :   54529  [Nneg: 1,  Box: 22724,  Free: 4464,
                                 Binary: 27340]
Objective nonzeros   :    9725
Linear constraints   :  123253  [Less: 41346,  Greater: 59096,  Equal: 22811]
  Nonzeros           :  293217
  RHS nonzeros       :   67491

Variables            : Min LB: -5000.000        Max UB: 1000000.       
Objective nonzeros   : Min   : 0.1083333        Max   : 2500.000       
Linear constraints   :
  Nonzeros           : Min   : 0.1083333        Max   : 1000000.       
  RHS nonzeros       : Min   : 0.1083333        Max   : 1000000.       
CPLEX> CPXPARAM_Parallel                                -1
CPXPARAM_Emphasis_MIP                            1
CPXPARAM_DetTimeLimit                            75000
CPXPARAM_MIP_Tolerances_MIPGap                   0.01
CPXPARAM_MIP_Tolerances_Integrality              9.9999999999999998e-13
Warning:  No solution found from 1 MIP starts.
Retaining values of one MIP start for possible repair.
Tried aggregator 4 times.
MIP Presolve eliminated 88656 rows and 19679 columns.
MIP Presolve added 3378 rows and 0 columns.
MIP Presolve modified 24841 coefficients.
Aggregator did 12998 substitutions.
Reduced MIP has 24977 rows, 21296 columns, and 71857 nonzeros.
Reduced MIP has 8422 binaries, 0 generals, 0 SOSs, and 0 indicators.
Presolve time = 0.26 sec. (192.93 ticks)
Probing fixed 391 vars, tightened 3973 bounds.
Probing time = 0.06 sec. (18.97 ticks)
Tried aggregator 2 times.
MIP Presolve eliminated 883 rows and 785 columns.
MIP Presolve modified 3037 coefficients.
Aggregator did 30 substitutions.
Reduced MIP has 24064 rows, 20481 columns, and 69211 nonzeros.
Reduced MIP has 8030 binaries, 0 generals, 0 SOSs, and 0 indicators.
Presolve time = 0.11 sec. (89.66 ticks)
Probing fixed 0 vars, tightened 250 bounds.
Probing time = 0.11 sec. (22.81 ticks)
Clique table members: 45213.
MIP emphasis: integer feasibility.
MIP search method: dynamic search.
Parallel mode: opportunistic, using up to 12 threads.
Root relaxation solution time = 0.51 sec. (704.81 ticks)

        Nodes                                         Cuts/
   Node  Left     Objective  IInf  Best Integer    Best Bound    ItCnt     Gap

      0     0   154388.9356   367                 154388.9356     5961         
      0     0   149943.4432   298                   Cuts: 252     6322         
      0     0   147541.5293   299                   Cuts: 105     6517         
      0     0   147235.4037   293                    Cuts: 39     6561         
Repair heuristic found nothing.
      0    13   122858.9890   267                     Cuts: 2     6704         
Elapsed time = 3.52 sec. (2003.96 ticks, tree = 0.02 MB, solutions = 0)
    185    71   142224.5194   238                 144917.8973     7678         
    464   258   137545.0528   140                 144917.8973     9622         
    713   575    infeasible                       144917.8973    16462         
    896   687    49072.9510   152                 144917.8973    18929         
   1095   926   -15433.2197    80                 144917.8973    22303         
   1315  1011    10782.6944    92                 144917.8973    23991         
   1530  1151  -140011.7892    99                 144917.8973    28137         
   1744  1254    82894.8226   134                 144734.6027    31272         
   1936  1575    83266.3265   135                 144734.6027    40951         
   2870  2240    54753.1955   104                 144734.6027    58200         
Elapsed time = 16.20 sec. (5114.29 ticks, tree = 19.72 MB, solutions = 0)
   3824  3006   102805.8543   161                 144734.6027    81628         
   4624  3441    83924.1147   164                 144734.6027    99109         
   5364  3955  -111156.2576   147                 144734.6027   120701         
   6039  4598    83783.2480   164                 144734.6027   155409         
   6686  5013   -51045.3302   149                 144734.6027   178467         
   7418  5210    infeasible                       144734.6027   193292         
   8108  5705    52496.0963   137                 143391.4427   227102         
   8743  6180   103159.8009   176                 143391.4427   257739         
   9404  6575    58508.3426   158                 143391.4427   281076         
   9633  7157    94305.7955   163                 108740.6251   325635         
Elapsed time = 52.08 sec. (16385.10 ticks, tree = 116.36 MB, solutions = 0)
  10285   493    81611.7561    89                 107402.2559   335706         
  11275   983    infeasible                       107402.2559   353761         
  12305  1446 -1117195.3898   141                 107125.8816   369691         
  13273  2087    50901.8928   132                 107125.8816   417449         
  14219  2302    94080.9192   156                 107125.8816   429835         
  15242  3292    84889.1184   126                 107125.8816   470528         
  16250  3257  -762169.4868   156                 107125.8816   469373         
  17249  3800    47767.4199    81                 107125.8816   491072         
  18196  4315    81109.5452   134                 106326.1354   510623         
  19150  4763    81642.0135   106                 106326.1354   526047         
Elapsed time = 93.94 sec. (25930.31 ticks, tree = 110.69 MB, solutions = 0)
  20066  5697    infeasible                       106118.4986   563128         
  20907  5751    42879.2470    98                 106118.4986   564462         
  21728  6087    66812.1617    87                 106118.4986   578826         
  22744  6568    63143.0425   102                 106118.4986   600726         
  23655  6970  -557218.5367   116                 106118.4986   623811         
  24553  7630    35264.1948    72                 106118.4986   666063         
  25339  7548    infeasible                       106118.4986   662645         
  26189  7938    infeasible                       106118.4986   679220         
  27126  8445   -90902.4445   129                 106118.4986   705727         
  28095  8853    infeasible                       106118.4986   735951         
Elapsed time = 143.36 sec. (35473.75 ticks, tree = 137.28 MB, solutions = 0)
  29004  8945    infeasible                       106118.4986   745340         
  29816  9321 -1653406.8187   188                 106118.4986   767744         
  30440  9996    70140.4545   145                 106118.4986   804235         
  31045 10293    infeasible                       106118.4986   830946         
  31958 10315    60726.4288   123                 106118.4986   831873         
  32838 10580    infeasible                       106118.4986   850331         
  33817 11004    infeasible                       106118.4986   892109         
  34782 11783    12932.7090   179                 106118.4986   943246         
  35771 11907    infeasible                       106118.4986   950821         
  36717 11961    infeasible                       106118.4986   953318         
Elapsed time = 194.30 sec. (45017.92 ticks, tree = 185.17 MB, solutions = 0)
  37536 12757    18710.3108   110                 106118.4986  1005306         
  38307 13109   -78566.2705   104                 106118.4986  1033350         
  39158 13398    infeasible                       106118.4986  1047307         
  40049 14174   -20277.9667   169                 106118.4986  1101495         
  40844 13999  -200685.7500   146                 106118.4986  1087917         
  41552 14769   -19024.4678   185                 106118.4986  1149306         
  42263 14903    infeasible                       106118.4986  1164987         
  43135 15386  -218796.7648   127                 106118.4986  1206613         
  44038 15675   -45803.6089   172                 106118.4986  1229369         
  44693 16068    74089.6362    94                 106118.4986  1262409         
Elapsed time = 201.66 sec. (54565.22 ticks, tree = 272.22 MB, solutions = 0)
  45219 16245    -1631.9837    99                 106118.4986  1270981         
  45852 16739  -205381.4277   185                 106118.4986  1302834         
  46579 17660    infeasible                       106118.4986  1365487         
  47299 17698    infeasible                       106118.4986  1368993         
  47844 17626     3432.9307   100                 106118.4986  1361666         
  47964 18587    93240.7951   110                 105556.9503  1445817         
  48402   251    infeasible                       105556.9503  1453425         
  48931   590    88258.0897   123                 105556.9503  1467598         
  49351   903    55204.9765   130                 105556.9503  1487554         
  49798  1131    68471.6553   109                 105556.9503  1507115         
Elapsed time = 220.56 sec. (66253.53 ticks, tree = 22.74 MB, solutions = 0)
  50333  1421    95926.7477   119                 105556.9503  1518472         
  50897  1585    infeasible                       105556.9503  1527056         
  51397  2292    49816.7975    57                 105556.9503  1559618         
  52006  2344    infeasible                       105556.9503  1560768         
  52584  2843    67674.1541    58                 105556.9503  1586362         
  53168  2867    71417.6891    90                 105556.9503  1587888         
  53705  3273    83333.8703    83                 105556.9503  1604540         
  54315  4017   -85708.3522    83                 105556.9503  1647998         
  54686  4031  -101496.7847    79                 105556.9503  1650561         

Cover cuts applied:  28
Implied bound cuts applied:  7
Flow cuts applied:  145
Mixed integer rounding cuts applied:  7
Zero-half cuts applied:  2

Root node processing (before b&c):
  Real time             =    3.09 sec. (1967.26 ticks)
Parallel b&c, 12 threads:
  Real time             =  238.88 sec. (73049.96 ticks)
  Sync time (average)   =    0.68 sec.
  Wait time (average)   =    0.06 sec.
                          ------------
Total (root+branch&cut) =  241.97 sec. (75017.21 ticks)


MIP - Deterministic time limit exceeded, no integer solution.
Current MIP best bound =  1.0555695029e+05 (gap is infinite)
Solution time =  241.98 sec.  Iterations = 1670758  Nodes = 54724 (4536)
Deterministic time = 75017.37 ticks  (310.01 ticks/sec)

CPLEX> CPLEX Error  1217: No solution exists.
No file written.
CPLEX> gap is infinite, so writing 0
Exporting results... 
